c ! encoding i-pc 250
p cnf 404 583
9 -252 0
131 -253 0
85 -254 0
-232 -256 0
255 -256 0
256 -257 0
213 -257 0
111 -259 0
258 -259 0
259 -260 0
-213 -260 0
257 260 -261 0
261 -262 0
231 -262 0
111 -263 0
-213 -263 0
263 -264 0
258 -264 0
264 -265 0
-231 -265 0
262 265 -266 0
23 -267 0
31 -267 0
102 -267 0
267 -269 0
268 -269 0
269 -270 0
221 -270 0
271 0
268 -272 0
272 -273 0
23 -273 0
-154 -274 0
-23 -274 0
273 274 -275 0
275 -278 0
276 -278 0
277 -278 0
278 -279 0
-221 -279 0
270 279 -280 0
266 -282 0
280 -282 0
83 -282 0
281 -282 0
282 -283 0
49 -283 0
281 -284 0
284 -285 0
83 -285 0
172 -286 0
-83 -286 0
285 286 -287 0
231 -288 0
-232 -288 0
287 -289 0
288 -289 0
289 -290 0
255 -290 0
290 -291 0
213 -291 0
281 -293 0
292 -293 0
293 -294 0
83 -294 0
172 -295 0
231 -295 0
281 -296 0
296 -297 0
-231 -297 0
295 297 -298 0
298 -299 0
-83 -299 0
294 299 -300 0
300 -301 0
111 -301 0
301 -302 0
258 -302 0
302 -303 0
-213 -303 0
291 303 -304 0
-23 -305 0
-154 -305 0
276 -306 0
277 -306 0
304 -307 0
305 -307 0
306 -307 0
307 -308 0
-49 -308 0
310 -311 0
311 -312 0
104 -312 0
166 -314 0
313 -314 0
314 -315 0
-104 -315 0
312 315 -316 0
316 -317 0
212 -317 0
-166 -318 0
318 -319 0
-212 -319 0
-81 -321 0
-189 -321 0
204 -321 0
322 -324 0
323 -324 0
309 -325 0
320 -325 0
324 -325 0
38 -326 0
-166 -327 0
189 -327 0
310 -328 0
328 -329 0
-189 -329 0
327 329 -330 0
330 -331 0
212 -331 0
-166 -333 0
332 -333 0
333 -334 0
-212 -334 0
331 334 -335 0
-6 -336 0
-43 -336 0
-204 -336 0
335 -338 0
336 -338 0
337 -338 0
338 -340 0
339 -340 0
340 -341 0
149 -341 0
-81 -342 0
323 -342 0
342 -343 0
204 -343 0
-6 -344 0
337 -344 0
344 -345 0
-204 -345 0
343 345 -346 0
310 -347 0
347 -348 0
212 -348 0
-166 -349 0
-212 -349 0
348 349 -350 0
-189 -351 0
346 -352 0
350 -352 0
351 -352 0
352 -353 0
322 -353 0
353 -354 0
-149 -354 0
-23 -356 0
-154 -356 0
276 -357 0
277 -357 0
355 -358 0
304 -358 0
357 -358 0
-38 -359 0
361 -362 0
362 -363 0
200 -363 0
-200 -364 0
76 -366 0
367 -368 0
368 -369 0
-76 -369 0
371 -372 0
372 -373 0
14 -373 0
-14 -374 0
377 -385 0
378 -385 0
379 -385 0
380 -385 0
381 -385 0
382 -385 0
383 -385 0
384 -385 0
360 -386 0
365 -386 0
370 -386 0
375 -386 0
385 -386 0
80 -387 0
-80 -388 0
-85 -392 0
105 -394 0
-105 -395 0
-131 -399 0
-9 -401 0
1 0
-2 0
-3 0
4 0
-7 0
8 0
-10 0
11 0
12 0
-13 0
15 0
16 0
-17 0
18 0
19 0
21 0
22 0
-24 0
25 0
-26 0
-28 0
29 0
30 0
-32 0
33 0
34 0
-35 0
-36 0
37 0
39 0
-40 0
41 0
-42 0
44 0
-45 0
46 0
47 0
-48 0
-50 0
-51 0
52 0
-53 0
54 0
55 0
-56 0
-58 0
59 0
-60 0
61 0
62 0
-63 0
-64 0
-65 0
66 0
-67 0
68 0
-69 0
70 0
-71 0
72 0
-73 0
-74 0
75 0
77 0
-78 0
-79 0
-82 0
-84 0
-86 0
-87 0
88 0
89 0
-90 0
-91 0
92 0
-93 0
94 0
-95 0
-96 0
-97 0
-98 0
99 0
100 0
103 0
106 0
107 0
108 0
109 0
110 0
112 0
-113 0
-114 0
115 0
116 0
-118 0
119 0
-120 0
-121 0
122 0
123 0
124 0
125 0
127 0
128 0
-129 0
130 0
-132 0
-133 0
134 0
135 0
-136 0
-137 0
-138 0
-139 0
-140 0
141 0
-143 0
144 0
145 0
-146 0
-147 0
-148 0
-150 0
-151 0
152 0
153 0
155 0
156 0
157 0
158 0
-159 0
-160 0
-161 0
162 0
-163 0
164 0
165 0
167 0
-168 0
-169 0
170 0
171 0
-174 0
175 0
-176 0
177 0
178 0
180 0
-181 0
182 0
183 0
-184 0
185 0
186 0
187 0
-190 0
191 0
192 0
193 0
194 0
196 0
197 0
-198 0
-199 0
-201 0
-202 0
203 0
-205 0
206 0
207 0
-208 0
209 0
-210 0
-214 0
215 0
216 0
217 0
-218 0
-219 0
220 0
222 0
-223 0
-224 0
225 0
-226 0
-227 0
-228 0
-229 0
-230 0
-233 0
-234 0
235 0
236 0
237 0
238 0
239 0
-240 0
241 0
-242 0
243 0
-244 0
245 0
246 0
-247 0
-248 0
-249 0
250 0
-399 400 0
-398 399 0
-394 396 0
-393 394 0
-392 393 0
-391 392 0
-387 389 0
-386 387 0
-390 391 0
-376 386 0
-403 404 0
-400 401 0
-299 300 0
-327 330 0
-293 294 0
-272 273 0
-329 330 0
-305 307 0
-23 267 273 0
-321 325 0
-401 402 0
-288 289 0
-213 257 291 0
-330 331 0
-362 363 0
212 319 334 349 0
-318 319 0
-212 317 331 348 0
-282 283 0
-354 355 0
-349 350 0
81 321 337 342 0
-313 314 0
-311 312 0
-317 320 0
-309 325 0
-319 320 0
-308 309 0
-340 341 0
-310 311 328 347 0
-325 326 0
204 336 345 0
104 315 0
-297 298 0
-304 307 358 0
-296 297 0
-322 324 353 0
-292 293 0
-303 304 0
-289 290 0
232 256 258 288 0
-287 289 0
-316 317 0
-302 303 0
-251 252 253 254 388 395 0
-286 287 0
83 286 299 0
-320 325 0
-61 321 356 0
-344 345 0
-263 264 0
23 274 305 356 0
-301 302 0
-231 262 288 292 295 0
-336 338 0
154 268 274 305 356 0
-351 352 0
-232 258 0
-332 333 0
-264 265 0
-279 280 0
231 265 292 297 0
-259 260 0
-274 275 0
-104 312 318 356 0
-111 255 259 263 301 0
-256 257 0
-314 315 0
-300 301 0
-102 267 277 0
-49 283 0
-277 278 306 357 0
-315 316 0
-290 291 0
-285 287 0
166 310 318 327 333 349 0
5 361 0
-281 282 284 293 296 0
-273 275 0
-258 259 264 302 0
-266 282 0
-262 266 0
-255 256 290 0
-260 261 0
-306 307 0
-154 268 0
-265 266 0
-397 398 0
-268 269 272 0
-31 267 276 0
-43 322 0
-221 270 0
-270 280 0
-204 321 343 0
111 255 0
-361 362 0
-269 270 0
31 276 0
-276 278 306 357 0
-278 279 0
-323 324 342 0
-280 282 0
-179 321 339 351 0
-257 261 0
-275 278 0
-83 282 285 294 0
-283 309 0
-312 316 0
-6 323 0
-267 269 0
-328 329 0
-372 373 0
-284 285 0
-149 341 0
-331 335 0
-333 334 0
-324 325 0
-57 371 0
-367 368 0
-335 338 0
-337 338 344 0
-295 298 0
-338 340 0
-357 358 0
179 339 0
-76 366 0
-339 340 0
-307 308 0
-14 373 0
-343 346 0
-298 299 0
-345 346 0
-346 352 0
-271 272 284 293 296 328 347 362 368 372 0
-347 348 0
-348 350 0
-350 352 0
-291 304 0
-352 353 0
-353 354 0
-172 281 286 295 0
-355 358 0
-371 372 0
-356 358 0
172 281 0
-358 359 0
-81 337 0
-200 363 0
-189 327 332 0
-108 397 0
200 364 0
102 277 0
-334 335 0
-195 367 0
-368 369 0
76 369 0
213 260 263 303 0
6 323 336 344 0
14 374 0
101 313 0
43 322 336 0
-342 343 0
3 390 0
-261 262 0
-294 300 0
-166 310 314 0
208 403 0
118 376 0
